40	100	100	100
71	79	16
95	71	41
87	75	28
68	82	8
98	70	47
93	68	2
81	87	4
92	81	17
71	96	46
81	86	16
70	81	25
82	82	12
82	71	12
79	73	16
84	84	40
81	97	28
70	95	35
73	93	23
77	86	32
79	89	20
71	88	4
86	78	8
83	99	31
98	96	2
70	85	1
84	94	40
83	96	15
78	72	17
88	72	12
78	92	47
77	87	24
93	93	13
68	68	19
77	75	13
93	72	7
77	80	13
97	67	46
69	90	48
97	77	38
86	81	26
